c ENC2
p cnf 39 72
w	1	0.9
w	2	0.36
w	3	0.3825
w	4	0.81
w	5	0.9
w	6	0.99
w	7	0.108
w	8	-1
w	9	-1
w	10	0.0001
w	11	0.765
w	12	0.9
w	13	-1
w	14	-1
w	15	0.27
w	16	0.765
w	17	0.9
w	18	0.009
w	19	0.9
w	20	0.36
w	21	0.0081
w	22	0.009
w	23	0.45
w	24	0.45
w	25	0.27
w	26	0.0001
w	27	0.95
w	28	0.9999
w	29	0.108
w	30	-1
w	31	-1
w	32	-1
w	33	-1
w	34	0.0081
w	35	-1
w	36	-1
w	37	-1
w	38	-1
w	39	0.3825
14 13 0
38 35 0
9 8 0
32 33 0
31 30 0
37 36 0
-14 -13 0
-38 -35 0
-9 -8 0
-32 -33 0
-31 -30 0
-37 -36 0
-27 14 0
27 13 0
-27 14 0
27 13 0
-6 38 0
6 35 0
-27 14 0
27 13 0
-6 38 0
6 35 0
-28 9 0
28 8 0
-14 -38 -9 -1 32 0
-14 -38 -9 1 33 0
-14 -38 -8 -15 32 0
-14 -38 -8 15 33 0
-14 -35 -9 -19 32 0
-14 -35 -9 19 33 0
-14 -35 -8 -25 32 0
-14 -35 -8 25 33 0
-13 -38 -9 -2 32 0
-13 -38 -9 2 33 0
-13 -38 -8 -29 32 0
-13 -38 -8 29 33 0
-13 -35 -9 -20 32 0
-13 -35 -9 20 33 0
-13 -35 -8 -7 32 0
-13 -35 -8 7 33 0
-14 -38 -9 -5 31 0
-14 -38 -9 5 30 0
-14 -38 -8 -18 31 0
-14 -38 -8 18 30 0
-14 -35 -9 -22 31 0
-14 -35 -9 22 30 0
-14 -35 -8 -26 31 0
-14 -35 -8 26 30 0
-13 -38 -9 -4 31 0
-13 -38 -9 4 30 0
-13 -38 -8 -34 31 0
-13 -38 -8 34 30 0
-13 -35 -9 -21 31 0
-13 -35 -9 21 30 0
-13 -35 -8 -10 31 0
-13 -35 -8 10 30 0
-14 -38 -9 -12 37 0
-14 -38 -9 12 36 0
-14 -38 -8 -23 37 0
-14 -38 -8 23 36 0
-14 -35 -9 -17 37 0
-14 -35 -9 17 36 0
-14 -35 -8 -24 37 0
-14 -35 -8 24 36 0
-13 -38 -9 -11 37 0
-13 -38 -9 11 36 0
-13 -38 -8 -39 37 0
-13 -38 -8 39 36 0
-13 -35 -9 -16 37 0
-13 -35 -9 16 36 0
-13 -35 -8 -3 37 0
-13 -35 -8 3 36 0
